benchmarks/A073_k70.lp
% benchmark A073_k70
% num of cables
#const k=70.
% num of 2-sided cables
#const b=35.

% atomic constraints
atomiccon(2,42).
atomiccon(2,43).
atomiccon(2,44).
atomiccon(2,45).
atomiccon(2,46).
atomiccon(2,47).
atomiccon(2,48).
atomiccon(2,49).
atomiccon(2,50).
atomiccon(2,51).
atomiccon(2,53).
atomiccon(2,63).
atomiccon(2,64).
atomiccon(2,65).
atomiccon(2,66).
atomiccon(2,68).
atomiccon(2,69).
atomiccon(2,70).
atomiccon(3,42).
atomiccon(3,43).
atomiccon(3,44).
atomiccon(3,45).
atomiccon(3,46).
atomiccon(3,47).
atomiccon(3,48).
atomiccon(3,49).
atomiccon(3,50).
atomiccon(3,51).
atomiccon(3,53).
atomiccon(3,64).
atomiccon(3,65).
atomiccon(3,66).
atomiccon(3,68).
atomiccon(3,69).
atomiccon(3,70).
atomiccon(4,42).
atomiccon(4,43).
atomiccon(4,44).
atomiccon(4,45).
atomiccon(4,46).
atomiccon(4,47).
atomiccon(4,48).
atomiccon(4,49).
atomiccon(4,50).
atomiccon(4,51).
atomiccon(4,53).
atomiccon(4,65).
atomiccon(4,66).
atomiccon(4,68).
atomiccon(4,69).
atomiccon(4,70).
atomiccon(5,43).
atomiccon(5,44).
atomiccon(5,45).
atomiccon(5,46).
atomiccon(5,47).
atomiccon(5,48).
atomiccon(5,49).
atomiccon(5,50).
atomiccon(5,51).
atomiccon(5,53).
atomiccon(5,66).
atomiccon(5,68).
atomiccon(5,69).
atomiccon(5,70).
atomiccon(6,45).
atomiccon(6,46).
atomiccon(6,47).
atomiccon(6,48).
atomiccon(6,49).
atomiccon(6,50).
atomiccon(6,51).
atomiccon(6,53).
atomiccon(6,68).
atomiccon(6,69).
atomiccon(6,70).
atomiccon(7,46).
atomiccon(7,47).
atomiccon(7,48).
atomiccon(7,49).
atomiccon(7,50).
atomiccon(7,51).
atomiccon(7,53).
atomiccon(7,69).
atomiccon(7,70).
atomiccon(8,47).
atomiccon(8,48).
atomiccon(8,49).
atomiccon(8,50).
atomiccon(8,51).
atomiccon(8,53).
atomiccon(8,70).
atomiccon(9,48).
atomiccon(9,49).
atomiccon(9,50).
atomiccon(9,51).
atomiccon(9,53).
atomiccon(10,49).
atomiccon(10,50).
atomiccon(10,51).
atomiccon(10,53).
atomiccon(11,50).
atomiccon(11,51).
atomiccon(11,53).
atomiccon(1,41).
atomiccon(1,42).
atomiccon(1,43).
atomiccon(1,44).
atomiccon(1,45).
atomiccon(1,46).
atomiccon(1,47).
atomiccon(1,48).
atomiccon(1,49).
atomiccon(1,50).
atomiccon(1,51).
atomiccon(1,52).
atomiccon(1,53).
atomiccon(1,54).
atomiccon(1,55).
atomiccon(1,56).
atomiccon(1,57).
atomiccon(1,58).
atomiccon(1,59).
atomiccon(1,60).
atomiccon(1,61).
atomiccon(1,62).
atomiccon(1,63).
atomiccon(1,64).
atomiccon(1,65).
atomiccon(1,66).
atomiccon(1,67).
atomiccon(1,68).
atomiccon(1,69).
atomiccon(1,70).
atomiccon(13,51).
atomiccon(13,53).
atomiccon(14,1).
atomiccon(14,12).
atomiccon(14,16).
atomiccon(14,41).
atomiccon(14,42).
atomiccon(14,43).
atomiccon(14,44).
atomiccon(14,45).
atomiccon(14,46).
atomiccon(14,47).
atomiccon(14,48).
atomiccon(14,49).
atomiccon(14,50).
atomiccon(14,51).
atomiccon(14,52).
atomiccon(14,53).
atomiccon(14,54).
atomiccon(14,55).
atomiccon(14,56).
atomiccon(14,57).
atomiccon(14,58).
atomiccon(14,59).
atomiccon(14,60).
atomiccon(14,61).
atomiccon(14,62).
atomiccon(14,63).
atomiccon(14,64).
atomiccon(14,65).
atomiccon(14,66).
atomiccon(14,67).
atomiccon(14,68).
atomiccon(14,69).
atomiccon(14,70).
atomiccon(15,1).
atomiccon(15,12).
atomiccon(15,16).
atomiccon(15,27).
atomiccon(15,41).
atomiccon(15,42).
atomiccon(15,43).
atomiccon(15,44).
atomiccon(15,45).
atomiccon(15,46).
atomiccon(15,47).
atomiccon(15,48).
atomiccon(15,49).
atomiccon(15,50).
atomiccon(15,51).
atomiccon(15,52).
atomiccon(15,53).
atomiccon(15,54).
atomiccon(15,55).
atomiccon(15,56).
atomiccon(15,57).
atomiccon(15,58).
atomiccon(15,59).
atomiccon(15,60).
atomiccon(15,61).
atomiccon(15,62).
atomiccon(15,63).
atomiccon(15,64).
atomiccon(15,65).
atomiccon(15,66).
atomiccon(15,67).
atomiccon(15,68).
atomiccon(15,69).
atomiccon(15,70).
atomiccon(12,41).
atomiccon(12,42).
atomiccon(12,43).
atomiccon(12,44).
atomiccon(12,45).
atomiccon(12,46).
atomiccon(12,47).
atomiccon(12,48).
atomiccon(12,49).
atomiccon(12,50).
atomiccon(12,51).
atomiccon(12,52).
atomiccon(12,53).
atomiccon(12,54).
atomiccon(12,55).
atomiccon(12,56).
atomiccon(12,57).
atomiccon(12,58).
atomiccon(12,59).
atomiccon(12,60).
atomiccon(12,61).
atomiccon(12,62).
atomiccon(12,63).
atomiccon(12,64).
atomiccon(12,65).
atomiccon(12,66).
atomiccon(12,67).
atomiccon(12,68).
atomiccon(12,69).
atomiccon(12,70).
atomiccon(17,12).
atomiccon(17,16).
atomiccon(17,27).
atomiccon(17,36).
atomiccon(17,41).
atomiccon(17,42).
atomiccon(17,43).
atomiccon(17,44).
atomiccon(17,45).
atomiccon(17,46).
atomiccon(17,47).
atomiccon(17,48).
atomiccon(17,49).
atomiccon(17,50).
atomiccon(17,51).
atomiccon(17,52).
atomiccon(17,53).
atomiccon(17,55).
atomiccon(17,56).
atomiccon(17,57).
atomiccon(17,58).
atomiccon(17,59).
atomiccon(17,60).
atomiccon(17,61).
atomiccon(17,62).
atomiccon(17,63).
atomiccon(17,64).
atomiccon(17,65).
atomiccon(17,66).
atomiccon(17,67).
atomiccon(17,68).
atomiccon(17,69).
atomiccon(17,70).
atomiccon(18,16).
atomiccon(18,27).
atomiccon(18,36).
atomiccon(18,37).
atomiccon(18,42).
atomiccon(18,43).
atomiccon(18,44).
atomiccon(18,45).
atomiccon(18,46).
atomiccon(18,47).
atomiccon(18,48).
atomiccon(18,49).
atomiccon(18,50).
atomiccon(18,51).
atomiccon(18,52).
atomiccon(18,53).
atomiccon(18,56).
atomiccon(18,57).
atomiccon(18,58).
atomiccon(18,59).
atomiccon(18,60).
atomiccon(18,61).
atomiccon(18,62).
atomiccon(18,63).
atomiccon(18,64).
atomiccon(18,65).
atomiccon(18,66).
atomiccon(18,67).
atomiccon(18,68).
atomiccon(18,69).
atomiccon(18,70).
atomiccon(19,27).
atomiccon(19,36).
atomiccon(19,37).
atomiccon(19,38).
atomiccon(19,42).
atomiccon(19,43).
atomiccon(19,44).
atomiccon(19,45).
atomiccon(19,46).
atomiccon(19,47).
atomiccon(19,48).
atomiccon(19,49).
atomiccon(19,50).
atomiccon(19,51).
atomiccon(19,53).
atomiccon(19,56).
atomiccon(19,58).
atomiccon(19,59).
atomiccon(19,60).
atomiccon(19,61).
atomiccon(19,62).
atomiccon(19,63).
atomiccon(19,64).
atomiccon(19,65).
atomiccon(19,66).
atomiccon(19,67).
atomiccon(19,68).
atomiccon(19,69).
atomiccon(19,70).
atomiccon(20,36).
atomiccon(20,37).
atomiccon(20,38).
atomiccon(20,39).
atomiccon(20,42).
atomiccon(20,43).
atomiccon(20,44).
atomiccon(20,45).
atomiccon(20,46).
atomiccon(20,47).
atomiccon(20,48).
atomiccon(20,49).
atomiccon(20,50).
atomiccon(20,51).
atomiccon(20,53).
atomiccon(20,59).
atomiccon(20,60).
atomiccon(20,61).
atomiccon(20,62).
atomiccon(20,63).
atomiccon(20,64).
atomiccon(20,65).
atomiccon(20,66).
atomiccon(20,67).
atomiccon(20,68).
atomiccon(20,69).
atomiccon(20,70).
atomiccon(21,37).
atomiccon(21,38).
atomiccon(21,39).
atomiccon(21,40).
atomiccon(21,42).
atomiccon(21,43).
atomiccon(21,44).
atomiccon(21,45).
atomiccon(21,46).
atomiccon(21,47).
atomiccon(21,48).
atomiccon(21,49).
atomiccon(21,50).
atomiccon(21,51).
atomiccon(21,53).
atomiccon(21,60).
atomiccon(21,61).
atomiccon(21,62).
atomiccon(21,63).
atomiccon(21,64).
atomiccon(21,65).
atomiccon(21,66).
atomiccon(21,68).
atomiccon(21,69).
atomiccon(21,70).
atomiccon(22,2).
atomiccon(22,38).
atomiccon(22,39).
atomiccon(22,40).
atomiccon(22,42).
atomiccon(22,43).
atomiccon(22,44).
atomiccon(22,45).
atomiccon(22,46).
atomiccon(22,47).
atomiccon(22,48).
atomiccon(22,49).
atomiccon(22,50).
atomiccon(22,51).
atomiccon(22,53).
atomiccon(22,61).
atomiccon(22,62).
atomiccon(22,63).
atomiccon(22,64).
atomiccon(22,65).
atomiccon(22,66).
atomiccon(22,68).
atomiccon(22,69).
atomiccon(22,70).
atomiccon(23,2).
atomiccon(23,3).
atomiccon(23,39).
atomiccon(23,40).
atomiccon(23,42).
atomiccon(23,43).
atomiccon(23,44).
atomiccon(23,45).
atomiccon(23,46).
atomiccon(23,47).
atomiccon(23,48).
atomiccon(23,49).
atomiccon(23,50).
atomiccon(23,51).
atomiccon(23,53).
atomiccon(23,62).
atomiccon(23,63).
atomiccon(23,64).
atomiccon(23,65).
atomiccon(23,66).
atomiccon(23,68).
atomiccon(23,69).
atomiccon(23,70).
atomiccon(24,2).
atomiccon(24,3).
atomiccon(24,4).
atomiccon(24,40).
atomiccon(24,42).
atomiccon(24,43).
atomiccon(24,44).
atomiccon(24,45).
atomiccon(24,46).
atomiccon(24,47).
atomiccon(24,48).
atomiccon(24,49).
atomiccon(24,50).
atomiccon(24,51).
atomiccon(24,53).
atomiccon(24,63).
atomiccon(24,64).
atomiccon(24,65).
atomiccon(24,66).
atomiccon(24,68).
atomiccon(24,69).
atomiccon(24,70).
atomiccon(25,2).
atomiccon(25,3).
atomiccon(25,4).
atomiccon(25,5).
atomiccon(25,42).
atomiccon(25,43).
atomiccon(25,44).
atomiccon(25,45).
atomiccon(25,46).
atomiccon(25,47).
atomiccon(25,48).
atomiccon(25,49).
atomiccon(25,50).
atomiccon(25,51).
atomiccon(25,53).
atomiccon(25,64).
atomiccon(25,65).
atomiccon(25,66).
atomiccon(25,68).
atomiccon(25,69).
atomiccon(25,70).
atomiccon(26,3).
atomiccon(26,4).
atomiccon(26,5).
atomiccon(26,6).
atomiccon(26,42).
atomiccon(26,43).
atomiccon(26,44).
atomiccon(26,45).
atomiccon(26,46).
atomiccon(26,47).
atomiccon(26,48).
atomiccon(26,49).
atomiccon(26,50).
atomiccon(26,51).
atomiccon(26,53).
atomiccon(26,65).
atomiccon(26,66).
atomiccon(26,68).
atomiccon(26,69).
atomiccon(26,70).
atomiccon(16,41).
atomiccon(16,42).
atomiccon(16,43).
atomiccon(16,44).
atomiccon(16,45).
atomiccon(16,46).
atomiccon(16,47).
atomiccon(16,48).
atomiccon(16,49).
atomiccon(16,50).
atomiccon(16,51).
atomiccon(16,52).
atomiccon(16,53).
atomiccon(16,55).
atomiccon(16,56).
atomiccon(16,57).
atomiccon(16,58).
atomiccon(16,59).
atomiccon(16,60).
atomiccon(16,61).
atomiccon(16,62).
atomiccon(16,63).
atomiccon(16,64).
atomiccon(16,65).
atomiccon(16,66).
atomiccon(16,67).
atomiccon(16,68).
atomiccon(16,69).
atomiccon(16,70).
atomiccon(28,4).
atomiccon(28,5).
atomiccon(28,6).
atomiccon(28,7).
atomiccon(28,43).
atomiccon(28,44).
atomiccon(28,45).
atomiccon(28,46).
atomiccon(28,47).
atomiccon(28,48).
atomiccon(28,49).
atomiccon(28,50).
atomiccon(28,51).
atomiccon(28,53).
atomiccon(28,66).
atomiccon(28,68).
atomiccon(28,69).
atomiccon(28,70).
atomiccon(29,5).
atomiccon(29,6).
atomiccon(29,7).
atomiccon(29,8).
atomiccon(29,45).
atomiccon(29,46).
atomiccon(29,47).
atomiccon(29,48).
atomiccon(29,49).
atomiccon(29,50).
atomiccon(29,51).
atomiccon(29,53).
atomiccon(29,68).
atomiccon(29,69).
atomiccon(29,70).
atomiccon(30,6).
atomiccon(30,7).
atomiccon(30,8).
atomiccon(30,9).
atomiccon(30,46).
atomiccon(30,47).
atomiccon(30,48).
atomiccon(30,49).
atomiccon(30,50).
atomiccon(30,51).
atomiccon(30,53).
atomiccon(30,69).
atomiccon(30,70).
atomiccon(31,7).
atomiccon(31,8).
atomiccon(31,9).
atomiccon(31,10).
atomiccon(31,47).
atomiccon(31,48).
atomiccon(31,49).
atomiccon(31,50).
atomiccon(31,51).
atomiccon(31,53).
atomiccon(31,70).
atomiccon(32,8).
atomiccon(32,9).
atomiccon(32,10).
atomiccon(32,11).
atomiccon(32,48).
atomiccon(32,49).
atomiccon(32,50).
atomiccon(32,51).
atomiccon(32,53).
atomiccon(33,9).
atomiccon(33,10).
atomiccon(33,11).
atomiccon(33,13).
atomiccon(33,49).
atomiccon(33,50).
atomiccon(33,51).
atomiccon(33,53).
atomiccon(34,10).
atomiccon(34,11).
atomiccon(34,13).
atomiccon(34,50).
atomiccon(34,51).
atomiccon(34,53).
atomiccon(35,11).
atomiccon(35,13).
atomiccon(35,51).
atomiccon(35,53).
atomiccon(27,42).
atomiccon(27,43).
atomiccon(27,44).
atomiccon(27,45).
atomiccon(27,46).
atomiccon(27,47).
atomiccon(27,48).
atomiccon(27,49).
atomiccon(27,50).
atomiccon(27,51).
atomiccon(27,52).
atomiccon(27,53).
atomiccon(27,56).
atomiccon(27,57).
atomiccon(27,58).
atomiccon(27,59).
atomiccon(27,60).
atomiccon(27,61).
atomiccon(27,62).
atomiccon(27,63).
atomiccon(27,64).
atomiccon(27,65).
atomiccon(27,66).
atomiccon(27,67).
atomiccon(27,68).
atomiccon(27,69).
atomiccon(27,70).
atomiccon(36,42).
atomiccon(36,43).
atomiccon(36,44).
atomiccon(36,45).
atomiccon(36,46).
atomiccon(36,47).
atomiccon(36,48).
atomiccon(36,49).
atomiccon(36,50).
atomiccon(36,51).
atomiccon(36,53).
atomiccon(36,56).
atomiccon(36,58).
atomiccon(36,59).
atomiccon(36,60).
atomiccon(36,61).
atomiccon(36,62).
atomiccon(36,63).
atomiccon(36,64).
atomiccon(36,65).
atomiccon(36,66).
atomiccon(36,67).
atomiccon(36,68).
atomiccon(36,69).
atomiccon(36,70).
atomiccon(37,42).
atomiccon(37,43).
atomiccon(37,44).
atomiccon(37,45).
atomiccon(37,46).
atomiccon(37,47).
atomiccon(37,48).
atomiccon(37,49).
atomiccon(37,50).
atomiccon(37,51).
atomiccon(37,53).
atomiccon(37,59).
atomiccon(37,60).
atomiccon(37,61).
atomiccon(37,62).
atomiccon(37,63).
atomiccon(37,64).
atomiccon(37,65).
atomiccon(37,66).
atomiccon(37,67).
atomiccon(37,68).
atomiccon(37,69).
atomiccon(37,70).
atomiccon(38,42).
atomiccon(38,43).
atomiccon(38,44).
atomiccon(38,45).
atomiccon(38,46).
atomiccon(38,47).
atomiccon(38,48).
atomiccon(38,49).
atomiccon(38,50).
atomiccon(38,51).
atomiccon(38,53).
atomiccon(38,60).
atomiccon(38,61).
atomiccon(38,62).
atomiccon(38,63).
atomiccon(38,64).
atomiccon(38,65).
atomiccon(38,66).
atomiccon(38,68).
atomiccon(38,69).
atomiccon(38,70).
atomiccon(39,42).
atomiccon(39,43).
atomiccon(39,44).
atomiccon(39,45).
atomiccon(39,46).
atomiccon(39,47).
atomiccon(39,48).
atomiccon(39,49).
atomiccon(39,50).
atomiccon(39,51).
atomiccon(39,53).
atomiccon(39,61).
atomiccon(39,62).
atomiccon(39,63).
atomiccon(39,64).
atomiccon(39,65).
atomiccon(39,66).
atomiccon(39,68).
atomiccon(39,69).
atomiccon(39,70).
atomiccon(40,42).
atomiccon(40,43).
atomiccon(40,44).
atomiccon(40,45).
atomiccon(40,46).
atomiccon(40,47).
atomiccon(40,48).
atomiccon(40,49).
atomiccon(40,50).
atomiccon(40,51).
atomiccon(40,53).
atomiccon(40,62).
atomiccon(40,63).
atomiccon(40,64).
atomiccon(40,65).
atomiccon(40,66).
atomiccon(40,68).
atomiccon(40,69).
atomiccon(40,70).
atomiccon(54,41).
atomiccon(54,52).
atomiccon(54,56).
atomiccon(55,41).
atomiccon(55,52).
atomiccon(55,56).
atomiccon(55,67).
atomiccon(57,52).
atomiccon(57,56).
atomiccon(57,67).
atomiccon(58,56).
atomiccon(58,67).
atomiccon(59,67).
atomiccon(62,42).
atomiccon(63,42).
atomiccon(63,43).
atomiccon(64,42).
atomiccon(64,43).
atomiccon(64,44).
atomiccon(65,42).
atomiccon(65,43).
atomiccon(65,44).
atomiccon(65,45).
atomiccon(66,43).
atomiccon(66,44).
atomiccon(66,45).
atomiccon(66,46).
atomiccon(68,44).
atomiccon(68,45).
atomiccon(68,46).
atomiccon(68,47).
atomiccon(69,45).
atomiccon(69,46).
atomiccon(69,47).
atomiccon(69,48).
atomiccon(70,46).
atomiccon(70,47).
atomiccon(70,48).
atomiccon(70,49).

% disjunctive constraints
discon(2,40,2,3).
discon(3,2,3,4).
discon(4,3,4,5).
discon(5,4,5,6).
discon(6,5,6,7).
discon(7,6,7,8).
discon(8,7,8,9).
discon(9,8,9,10).
discon(10,9,10,11).
discon(11,10,11,13).
discon(15,14,15,17).
discon(12,1,12,16).
discon(17,15,17,18).
discon(18,17,18,19).
discon(19,18,19,20).
discon(20,19,20,21).
discon(21,20,21,22).
discon(22,21,22,23).
discon(23,22,23,24).
discon(24,23,24,25).
discon(25,24,25,26).
discon(26,25,26,28).
discon(16,12,16,27).
discon(28,26,28,29).
discon(29,28,29,30).
discon(30,29,30,31).
discon(31,30,31,32).
discon(32,31,32,33).
discon(33,32,33,34).
discon(34,33,34,35).
discon(27,16,27,36).
discon(36,27,36,37).
discon(37,36,37,38).
discon(38,37,38,39).
discon(39,38,39,40).
discon(40,39,40,2).
discon(43,42,43,44).
discon(44,43,44,45).
discon(45,44,45,46).
discon(46,45,46,47).
discon(47,46,47,48).
discon(48,47,48,49).
discon(49,48,49,50).
discon(50,49,50,51).
discon(51,50,51,53).
discon(55,54,55,57).
discon(52,41,52,56).
discon(57,55,57,58).
discon(58,57,58,59).
discon(59,58,59,60).
discon(60,59,60,61).
discon(61,60,61,62).
discon(62,61,62,63).
discon(63,62,63,64).
discon(64,63,64,65).
discon(65,64,65,66).
discon(66,65,66,68).
discon(56,52,56,67).
discon(68,66,68,69).
discon(69,68,69,70).

% soft atomic constraints
softcon(40,2).
softcon(2,3).
softcon(3,4).
softcon(4,5).
softcon(5,6).
softcon(6,7).
softcon(7,8).
softcon(8,9).
softcon(9,10).
softcon(10,11).
softcon(1,12).
softcon(11,13).
softcon(14,15).
softcon(12,16).
softcon(15,17).
softcon(17,18).
softcon(18,19).
softcon(19,20).
softcon(20,21).
softcon(21,22).
softcon(22,23).
softcon(23,24).
softcon(24,25).
softcon(25,26).
softcon(16,27).
softcon(26,28).
softcon(28,29).
softcon(29,30).
softcon(30,31).
softcon(31,32).
softcon(32,33).
softcon(33,34).
softcon(34,35).
softcon(27,36).
softcon(36,37).
softcon(37,38).
softcon(38,39).
softcon(39,40).
softcon(42,43).
softcon(43,44).
softcon(44,45).
softcon(45,46).
softcon(46,47).
softcon(47,48).
softcon(48,49).
softcon(49,50).
softcon(50,51).
softcon(41,52).
softcon(51,53).
softcon(54,55).
softcon(52,56).
softcon(55,57).
softcon(57,58).
softcon(58,59).
softcon(59,60).
softcon(60,61).
softcon(61,62).
softcon(62,63).
softcon(63,64).
softcon(64,65).
softcon(65,66).
softcon(56,67).
softcon(66,68).
softcon(68,69).
softcon(69,70).

% direct successor constraints

