benchmarks/minizinc/A073_k70.dzn
k = 70;
b = 35;
AtomicConstraints =  [|
2, 42|
	2, 43|
	2, 44|
	2, 45|
	2, 46|
	2, 47|
	2, 48|
	2, 49|
	2, 50|
	2, 51|
	2, 53|
	2, 63|
	2, 64|
	2, 65|
	2, 66|
	2, 68|
	2, 69|
	2, 70|
	3, 42|
	3, 43|
	3, 44|
	3, 45|
	3, 46|
	3, 47|
	3, 48|
	3, 49|
	3, 50|
	3, 51|
	3, 53|
	3, 64|
	3, 65|
	3, 66|
	3, 68|
	3, 69|
	3, 70|
	4, 42|
	4, 43|
	4, 44|
	4, 45|
	4, 46|
	4, 47|
	4, 48|
	4, 49|
	4, 50|
	4, 51|
	4, 53|
	4, 65|
	4, 66|
	4, 68|
	4, 69|
	4, 70|
	5, 43|
	5, 44|
	5, 45|
	5, 46|
	5, 47|
	5, 48|
	5, 49|
	5, 50|
	5, 51|
	5, 53|
	5, 66|
	5, 68|
	5, 69|
	5, 70|
	6, 45|
	6, 46|
	6, 47|
	6, 48|
	6, 49|
	6, 50|
	6, 51|
	6, 53|
	6, 68|
	6, 69|
	6, 70|
	7, 46|
	7, 47|
	7, 48|
	7, 49|
	7, 50|
	7, 51|
	7, 53|
	7, 69|
	7, 70|
	8, 47|
	8, 48|
	8, 49|
	8, 50|
	8, 51|
	8, 53|
	8, 70|
	9, 48|
	9, 49|
	9, 50|
	9, 51|
	9, 53|
	10, 49|
	10, 50|
	10, 51|
	10, 53|
	11, 50|
	11, 51|
	11, 53|
	1, 41|
	1, 42|
	1, 43|
	1, 44|
	1, 45|
	1, 46|
	1, 47|
	1, 48|
	1, 49|
	1, 50|
	1, 51|
	1, 52|
	1, 53|
	1, 54|
	1, 55|
	1, 56|
	1, 57|
	1, 58|
	1, 59|
	1, 60|
	1, 61|
	1, 62|
	1, 63|
	1, 64|
	1, 65|
	1, 66|
	1, 67|
	1, 68|
	1, 69|
	1, 70|
	13, 51|
	13, 53|
	14, 1|
	14, 12|
	14, 16|
	14, 41|
	14, 42|
	14, 43|
	14, 44|
	14, 45|
	14, 46|
	14, 47|
	14, 48|
	14, 49|
	14, 50|
	14, 51|
	14, 52|
	14, 53|
	14, 54|
	14, 55|
	14, 56|
	14, 57|
	14, 58|
	14, 59|
	14, 60|
	14, 61|
	14, 62|
	14, 63|
	14, 64|
	14, 65|
	14, 66|
	14, 67|
	14, 68|
	14, 69|
	14, 70|
	15, 1|
	15, 12|
	15, 16|
	15, 27|
	15, 41|
	15, 42|
	15, 43|
	15, 44|
	15, 45|
	15, 46|
	15, 47|
	15, 48|
	15, 49|
	15, 50|
	15, 51|
	15, 52|
	15, 53|
	15, 54|
	15, 55|
	15, 56|
	15, 57|
	15, 58|
	15, 59|
	15, 60|
	15, 61|
	15, 62|
	15, 63|
	15, 64|
	15, 65|
	15, 66|
	15, 67|
	15, 68|
	15, 69|
	15, 70|
	12, 41|
	12, 42|
	12, 43|
	12, 44|
	12, 45|
	12, 46|
	12, 47|
	12, 48|
	12, 49|
	12, 50|
	12, 51|
	12, 52|
	12, 53|
	12, 54|
	12, 55|
	12, 56|
	12, 57|
	12, 58|
	12, 59|
	12, 60|
	12, 61|
	12, 62|
	12, 63|
	12, 64|
	12, 65|
	12, 66|
	12, 67|
	12, 68|
	12, 69|
	12, 70|
	17, 12|
	17, 16|
	17, 27|
	17, 36|
	17, 41|
	17, 42|
	17, 43|
	17, 44|
	17, 45|
	17, 46|
	17, 47|
	17, 48|
	17, 49|
	17, 50|
	17, 51|
	17, 52|
	17, 53|
	17, 55|
	17, 56|
	17, 57|
	17, 58|
	17, 59|
	17, 60|
	17, 61|
	17, 62|
	17, 63|
	17, 64|
	17, 65|
	17, 66|
	17, 67|
	17, 68|
	17, 69|
	17, 70|
	18, 16|
	18, 27|
	18, 36|
	18, 37|
	18, 42|
	18, 43|
	18, 44|
	18, 45|
	18, 46|
	18, 47|
	18, 48|
	18, 49|
	18, 50|
	18, 51|
	18, 52|
	18, 53|
	18, 56|
	18, 57|
	18, 58|
	18, 59|
	18, 60|
	18, 61|
	18, 62|
	18, 63|
	18, 64|
	18, 65|
	18, 66|
	18, 67|
	18, 68|
	18, 69|
	18, 70|
	19, 27|
	19, 36|
	19, 37|
	19, 38|
	19, 42|
	19, 43|
	19, 44|
	19, 45|
	19, 46|
	19, 47|
	19, 48|
	19, 49|
	19, 50|
	19, 51|
	19, 53|
	19, 56|
	19, 58|
	19, 59|
	19, 60|
	19, 61|
	19, 62|
	19, 63|
	19, 64|
	19, 65|
	19, 66|
	19, 67|
	19, 68|
	19, 69|
	19, 70|
	20, 36|
	20, 37|
	20, 38|
	20, 39|
	20, 42|
	20, 43|
	20, 44|
	20, 45|
	20, 46|
	20, 47|
	20, 48|
	20, 49|
	20, 50|
	20, 51|
	20, 53|
	20, 59|
	20, 60|
	20, 61|
	20, 62|
	20, 63|
	20, 64|
	20, 65|
	20, 66|
	20, 67|
	20, 68|
	20, 69|
	20, 70|
	21, 37|
	21, 38|
	21, 39|
	21, 40|
	21, 42|
	21, 43|
	21, 44|
	21, 45|
	21, 46|
	21, 47|
	21, 48|
	21, 49|
	21, 50|
	21, 51|
	21, 53|
	21, 60|
	21, 61|
	21, 62|
	21, 63|
	21, 64|
	21, 65|
	21, 66|
	21, 68|
	21, 69|
	21, 70|
	22, 2|
	22, 38|
	22, 39|
	22, 40|
	22, 42|
	22, 43|
	22, 44|
	22, 45|
	22, 46|
	22, 47|
	22, 48|
	22, 49|
	22, 50|
	22, 51|
	22, 53|
	22, 61|
	22, 62|
	22, 63|
	22, 64|
	22, 65|
	22, 66|
	22, 68|
	22, 69|
	22, 70|
	23, 2|
	23, 3|
	23, 39|
	23, 40|
	23, 42|
	23, 43|
	23, 44|
	23, 45|
	23, 46|
	23, 47|
	23, 48|
	23, 49|
	23, 50|
	23, 51|
	23, 53|
	23, 62|
	23, 63|
	23, 64|
	23, 65|
	23, 66|
	23, 68|
	23, 69|
	23, 70|
	24, 2|
	24, 3|
	24, 4|
	24, 40|
	24, 42|
	24, 43|
	24, 44|
	24, 45|
	24, 46|
	24, 47|
	24, 48|
	24, 49|
	24, 50|
	24, 51|
	24, 53|
	24, 63|
	24, 64|
	24, 65|
	24, 66|
	24, 68|
	24, 69|
	24, 70|
	25, 2|
	25, 3|
	25, 4|
	25, 5|
	25, 42|
	25, 43|
	25, 44|
	25, 45|
	25, 46|
	25, 47|
	25, 48|
	25, 49|
	25, 50|
	25, 51|
	25, 53|
	25, 64|
	25, 65|
	25, 66|
	25, 68|
	25, 69|
	25, 70|
	26, 3|
	26, 4|
	26, 5|
	26, 6|
	26, 42|
	26, 43|
	26, 44|
	26, 45|
	26, 46|
	26, 47|
	26, 48|
	26, 49|
	26, 50|
	26, 51|
	26, 53|
	26, 65|
	26, 66|
	26, 68|
	26, 69|
	26, 70|
	16, 41|
	16, 42|
	16, 43|
	16, 44|
	16, 45|
	16, 46|
	16, 47|
	16, 48|
	16, 49|
	16, 50|
	16, 51|
	16, 52|
	16, 53|
	16, 55|
	16, 56|
	16, 57|
	16, 58|
	16, 59|
	16, 60|
	16, 61|
	16, 62|
	16, 63|
	16, 64|
	16, 65|
	16, 66|
	16, 67|
	16, 68|
	16, 69|
	16, 70|
	28, 4|
	28, 5|
	28, 6|
	28, 7|
	28, 43|
	28, 44|
	28, 45|
	28, 46|
	28, 47|
	28, 48|
	28, 49|
	28, 50|
	28, 51|
	28, 53|
	28, 66|
	28, 68|
	28, 69|
	28, 70|
	29, 5|
	29, 6|
	29, 7|
	29, 8|
	29, 45|
	29, 46|
	29, 47|
	29, 48|
	29, 49|
	29, 50|
	29, 51|
	29, 53|
	29, 68|
	29, 69|
	29, 70|
	30, 6|
	30, 7|
	30, 8|
	30, 9|
	30, 46|
	30, 47|
	30, 48|
	30, 49|
	30, 50|
	30, 51|
	30, 53|
	30, 69|
	30, 70|
	31, 7|
	31, 8|
	31, 9|
	31, 10|
	31, 47|
	31, 48|
	31, 49|
	31, 50|
	31, 51|
	31, 53|
	31, 70|
	32, 8|
	32, 9|
	32, 10|
	32, 11|
	32, 48|
	32, 49|
	32, 50|
	32, 51|
	32, 53|
	33, 9|
	33, 10|
	33, 11|
	33, 13|
	33, 49|
	33, 50|
	33, 51|
	33, 53|
	34, 10|
	34, 11|
	34, 13|
	34, 50|
	34, 51|
	34, 53|
	35, 11|
	35, 13|
	35, 51|
	35, 53|
	27, 42|
	27, 43|
	27, 44|
	27, 45|
	27, 46|
	27, 47|
	27, 48|
	27, 49|
	27, 50|
	27, 51|
	27, 52|
	27, 53|
	27, 56|
	27, 57|
	27, 58|
	27, 59|
	27, 60|
	27, 61|
	27, 62|
	27, 63|
	27, 64|
	27, 65|
	27, 66|
	27, 67|
	27, 68|
	27, 69|
	27, 70|
	36, 42|
	36, 43|
	36, 44|
	36, 45|
	36, 46|
	36, 47|
	36, 48|
	36, 49|
	36, 50|
	36, 51|
	36, 53|
	36, 56|
	36, 58|
	36, 59|
	36, 60|
	36, 61|
	36, 62|
	36, 63|
	36, 64|
	36, 65|
	36, 66|
	36, 67|
	36, 68|
	36, 69|
	36, 70|
	37, 42|
	37, 43|
	37, 44|
	37, 45|
	37, 46|
	37, 47|
	37, 48|
	37, 49|
	37, 50|
	37, 51|
	37, 53|
	37, 59|
	37, 60|
	37, 61|
	37, 62|
	37, 63|
	37, 64|
	37, 65|
	37, 66|
	37, 67|
	37, 68|
	37, 69|
	37, 70|
	38, 42|
	38, 43|
	38, 44|
	38, 45|
	38, 46|
	38, 47|
	38, 48|
	38, 49|
	38, 50|
	38, 51|
	38, 53|
	38, 60|
	38, 61|
	38, 62|
	38, 63|
	38, 64|
	38, 65|
	38, 66|
	38, 68|
	38, 69|
	38, 70|
	39, 42|
	39, 43|
	39, 44|
	39, 45|
	39, 46|
	39, 47|
	39, 48|
	39, 49|
	39, 50|
	39, 51|
	39, 53|
	39, 61|
	39, 62|
	39, 63|
	39, 64|
	39, 65|
	39, 66|
	39, 68|
	39, 69|
	39, 70|
	40, 42|
	40, 43|
	40, 44|
	40, 45|
	40, 46|
	40, 47|
	40, 48|
	40, 49|
	40, 50|
	40, 51|
	40, 53|
	40, 62|
	40, 63|
	40, 64|
	40, 65|
	40, 66|
	40, 68|
	40, 69|
	40, 70|
	54, 41|
	54, 52|
	54, 56|
	55, 41|
	55, 52|
	55, 56|
	55, 67|
	57, 52|
	57, 56|
	57, 67|
	58, 56|
	58, 67|
	59, 67|
	62, 42|
	63, 42|
	63, 43|
	64, 42|
	64, 43|
	64, 44|
	65, 42|
	65, 43|
	65, 44|
	65, 45|
	66, 43|
	66, 44|
	66, 45|
	66, 46|
	68, 44|
	68, 45|
	68, 46|
	68, 47|
	69, 45|
	69, 46|
	69, 47|
	69, 48|
	70, 46|
	70, 47|
	70, 48|
	70, 49|];
DisjunctiveConstraints =  [|
2, 40, 2, 3|
	3, 2, 3, 4|
	4, 3, 4, 5|
	5, 4, 5, 6|
	6, 5, 6, 7|
	7, 6, 7, 8|
	8, 7, 8, 9|
	9, 8, 9, 10|
	10, 9, 10, 11|
	11, 10, 11, 13|
	15, 14, 15, 17|
	12, 1, 12, 16|
	17, 15, 17, 18|
	18, 17, 18, 19|
	19, 18, 19, 20|
	20, 19, 20, 21|
	21, 20, 21, 22|
	22, 21, 22, 23|
	23, 22, 23, 24|
	24, 23, 24, 25|
	25, 24, 25, 26|
	26, 25, 26, 28|
	16, 12, 16, 27|
	28, 26, 28, 29|
	29, 28, 29, 30|
	30, 29, 30, 31|
	31, 30, 31, 32|
	32, 31, 32, 33|
	33, 32, 33, 34|
	34, 33, 34, 35|
	27, 16, 27, 36|
	36, 27, 36, 37|
	37, 36, 37, 38|
	38, 37, 38, 39|
	39, 38, 39, 40|
	40, 39, 40, 2|
	43, 42, 43, 44|
	44, 43, 44, 45|
	45, 44, 45, 46|
	46, 45, 46, 47|
	47, 46, 47, 48|
	48, 47, 48, 49|
	49, 48, 49, 50|
	50, 49, 50, 51|
	51, 50, 51, 53|
	55, 54, 55, 57|
	52, 41, 52, 56|
	57, 55, 57, 58|
	58, 57, 58, 59|
	59, 58, 59, 60|
	60, 59, 60, 61|
	61, 60, 61, 62|
	62, 61, 62, 63|
	63, 62, 63, 64|
	64, 63, 64, 65|
	65, 64, 65, 66|
	66, 65, 66, 68|
	56, 52, 56, 67|
	68, 66, 68, 69|
	69, 68, 69, 70|];
SoftAtomicConstraints =  [|
40, 2|
2, 3|
3, 4|
4, 5|
5, 6|
6, 7|
7, 8|
8, 9|
9, 10|
10, 11|
1, 12|
11, 13|
14, 15|
12, 16|
15, 17|
17, 18|
18, 19|
19, 20|
20, 21|
21, 22|
22, 23|
23, 24|
24, 25|
25, 26|
16, 27|
26, 28|
28, 29|
29, 30|
30, 31|
31, 32|
32, 33|
33, 34|
34, 35|
27, 36|
36, 37|
37, 38|
38, 39|
39, 40|
42, 43|
43, 44|
44, 45|
45, 46|
46, 47|
47, 48|
48, 49|
49, 50|
50, 51|
41, 52|
51, 53|
54, 55|
52, 56|
55, 57|
57, 58|
58, 59|
59, 60|
60, 61|
61, 62|
62, 63|
63, 64|
64, 65|
65, 66|
56, 67|
66, 68|
68, 69|
69, 70|];
DirectSuccessors =  [];